letting n =  10
letting blocks =  [[1, 1], [1, 4], [1, 6], [1, 9], [1, 10], [3, 7], [4, 1], [4, 2], [4, 5], [4, 8], [5, 7], [5, 10], [6, 3], [6, 6], [6, 7], [6, 10], [7, 1], [7, 4], [7, 8], [8, 1], [8, 2], [8, 3], [8, 4], [8, 6], [8, 9], [9, 9], [10, 2], [10, 4], [10, 8], [10, 10]]
